;symbolic execution tree
(push)
(assert (le x0 java.lang.Object))
(check-sat)
(push)
(assert (le x1 java.lang.Object))
(check-sat)
(push)
(assert (le x2 java.lang.Object))
(check-sat)
(push)
(assert (le x3 java.lang.Object))
(check-sat)
(push)
(assert (le x1 weka.core.FastVector))
(check-sat)
(push)
(assert (le x2 weka.core.Instances))
(check-sat)
(push)
(assert (le x1 weka.core.FastVector))
(check-sat)
(pop)
(push)
(assert (not (le x1 weka.core.FastVector)))
(check-sat)
(pop)
(pop)
(push)
(assert (not (le x2 weka.core.Instances)))
(check-sat)
(push)
(assert (le x0 weka.classifiers.Classifier))
(check-sat)
(pop)
(push)
(assert (not (le x0 weka.classifiers.Classifier)))
(check-sat)
(push)
(assert (le x0 weka.classifiers.trees.m5.PreConstructedLinearModel))
(check-sat)
(pop)
(push)
(assert (not (le x0 weka.classifiers.trees.m5.PreConstructedLinearModel)))
(check-sat)
(push)
(assert (le x1 weka.core.FastVector))
(check-sat)
(pop)
(push)
(assert (not (le x1 weka.core.FastVector)))
(check-sat)
(pop)
(pop)
(pop)
(pop)
(push)
(assert (le x3 java.util.Vector))
(check-sat)
(pop)
(push)
(assert (not (le x3 java.util.Vector)))
(check-sat)
(push)
(assert (le x1 weka.core.FastVector))
(check-sat)
(pop)
(push)
(assert (not (le x1 weka.core.FastVector)))
(check-sat)
(pop)
(push)
(assert (le x3 java.util.Vector))
(check-sat)
(pop)
(push)
(assert (not (le x3 java.util.Vector)))
(check-sat)
(push)
(assert (le x0 java.util.Vector))
(check-sat)
(pop)
(push)
(assert (not (le x0 java.util.Vector)))
(check-sat)
(pop)
(pop)
(pop)
(push)
(assert (le x0 weka.core.Queue))
(check-sat)
(pop)
(push)
(assert (not (le x0 weka.core.Queue)))
(check-sat)
(push)
(assert (le x1 weka.core.FastVector))
(check-sat)
(pop)
(push)
(assert (not (le x1 weka.core.FastVector)))
(check-sat)
(pop)
(pop)
(push)
(assert (le x2 weka.core.AttributeLocator))
(check-sat)
(pop)
(push)
(assert (not (le x2 weka.core.AttributeLocator)))
(check-sat)
(pop)
(push)
(assert (le x2 weka.core.AttributeLocator))
(check-sat)
(pop)
(push)
(assert (not (le x2 weka.core.AttributeLocator)))
(check-sat)
(pop)
(push)
(assert (= x2 java.lang.String))
(check-sat)
(push)
(assert (le x1 weka.core.FastVector))
(check-sat)
(push)
(assert (= x2 java.lang.String))
(check-sat)
(pop)
(push)
(assert (not (= x2 java.lang.String)))
(check-sat)
(pop)
(pop)
(push)
(assert (not (le x1 weka.core.FastVector)))
(check-sat)
(pop)
(push)
(assert (= x0 java.lang.Double))
(check-sat)
(push)
(assert (= x2 java.lang.String))
(check-sat)
(pop)
(push)
(assert (not (= x2 java.lang.String)))
(check-sat)
(pop)
(push)
(assert (le x1 weka.core.FastVector))
(check-sat)
(pop)
(push)
(assert (not (le x1 weka.core.FastVector)))
(check-sat)
(pop)
(pop)
(push)
(assert (not (= x0 java.lang.Double)))
(check-sat)
(pop)
(pop)
(push)
(assert (not (= x2 java.lang.String)))
(check-sat)
(pop)
(push)
(assert (= x3 java.lang.String))
(check-sat)
(pop)
(push)
(assert (not (= x3 java.lang.String)))
(check-sat)
(push)
(assert (le x1 weka.core.FastVector))
(check-sat)
(pop)
(push)
(assert (not (le x1 weka.core.FastVector)))
(check-sat)
(pop)
(pop)
(push)
(assert (le x0 weka.core.Instances))
(check-sat)
(pop)
(push)
(assert (not (le x0 weka.core.Instances)))
(check-sat)
(pop)
(push)
(assert (le x3 weka.core.Instances))
(check-sat)
(push)
(assert (le x2 weka.core.Instances))
(check-sat)
(pop)
(push)
(assert (not (le x2 weka.core.Instances)))
(check-sat)
(pop)
(push)
(assert (le x2 weka.core.Instances))
(check-sat)
(push)
(assert (le x0 weka.core.Instance))
(check-sat)
(pop)
(push)
(assert (not (le x0 weka.core.Instance)))
(check-sat)
(pop)
(pop)
(push)
(assert (not (le x2 weka.core.Instances)))
(check-sat)
(pop)
(push)
(assert (= x0 weka.classifiers.trees.m5.Impurity))
(check-sat)
(pop)
(push)
(assert (not (= x0 weka.classifiers.trees.m5.Impurity)))
(check-sat)
(push)
(assert (le x1 weka.core.FastVector))
(check-sat)
(push)
(assert (le x2 weka.core.Instances))
(check-sat)
(pop)
(push)
(assert (not (le x2 weka.core.Instances)))
(check-sat)
(pop)
(push)
(assert (= x2 java.lang.String))
(check-sat)
(pop)
(push)
(assert (not (= x2 java.lang.String)))
(check-sat)
(pop)
(pop)
(push)
(assert (not (le x1 weka.core.FastVector)))
(check-sat)
(pop)
(pop)
(push)
(assert (le x3 weka.core.Instances))
(check-sat)
(pop)
(push)
(assert (not (le x3 weka.core.Instances)))
(check-sat)
(pop)
(push)
(assert (le x0 weka.core.matrix.Matrix))
(check-sat)
(pop)
(push)
(assert (not (le x0 weka.core.matrix.Matrix)))
(check-sat)
(pop)
(pop)
(push)
(assert (not (le x3 weka.core.Instances)))
(check-sat)
(push)
(assert (le x1 weka.core.FastVector))
(check-sat)
(pop)
(push)
(assert (not (le x1 weka.core.FastVector)))
(check-sat)
(pop)
(pop)
(push)
(assert (le x1 weka.core.FastVector))
(check-sat)
(pop)
(push)
(assert (not (le x1 weka.core.FastVector)))
(check-sat)
(pop)
(push)
(assert (= x3 java.lang.String))
(check-sat)
(push)
(assert (le x2 weka.core.Instance))
(check-sat)
(pop)
(push)
(assert (not (le x2 weka.core.Instance)))
(check-sat)
(push)
(assert (= x0 java.lang.String))
(check-sat)
(pop)
(push)
(assert (not (= x0 java.lang.String)))
(check-sat)
(pop)
(push)
(assert (not (le x2 weka.core.SparseInstance)))
(check-sat)
(push)
(assert (le x0 java.util.Vector))
(check-sat)
(pop)
(push)
(assert (not (le x0 java.util.Vector)))
(check-sat)
(pop)
(pop)
(push)
(assert (le x2 weka.core.SparseInstance))
(check-sat)
(pop)
(pop)
(push)
(assert (le x0 weka.core.Instance))
(check-sat)
(pop)
(push)
(assert (not (le x0 weka.core.Instance)))
(check-sat)
(pop)
(push)
(assert (le x1 weka.core.FastVector))
(check-sat)
(pop)
(push)
(assert (not (le x1 weka.core.FastVector)))
(check-sat)
(pop)
(push)
(assert (le x1 weka.core.FastVector))
(check-sat)
(push)
(assert (= x0 java.lang.Boolean))
(check-sat)
(pop)
(push)
(assert (not (= x0 java.lang.Boolean)))
(check-sat)
(push)
(assert (= x3 java.lang.String))
(check-sat)
(pop)
(push)
(assert (not (= x3 java.lang.String)))
(check-sat)
(pop)
(push)
(assert (= x0 java.lang.Boolean))
(check-sat)
(pop)
(push)
(assert (not (= x0 java.lang.Boolean)))
(check-sat)
(pop)
(pop)
(pop)
(push)
(assert (not (le x1 weka.core.FastVector)))
(check-sat)
(pop)
(push)
(assert (le x3 java.lang.Object))
(check-sat)
(push)
(assert (le x2 java.util.Vector))
(check-sat)
(pop)
(push)
(assert (not (le x2 java.util.Vector)))
(check-sat)
(pop)
(pop)
(push)
(assert (not (le x3 java.lang.Object)))
(check-sat)
(pop)
(push)
(assert (le x2 weka.core.FastVector))
(check-sat)
(push)
(assert (= x3 java.lang.String))
(check-sat)
(pop)
(push)
(assert (not (= x3 java.lang.String)))
(check-sat)
(pop)
(pop)
(push)
(assert (not (le x2 weka.core.FastVector)))
(check-sat)
(pop)
(push)
(assert (= x0 java.lang.String))
(check-sat)
(pop)
(push)
(assert (not (= x0 java.lang.String)))
(check-sat)
(push)
(assert (= x0 java.lang.String))
(check-sat)
(pop)
(push)
(assert (not (= x0 java.lang.String)))
(check-sat)
(pop)
(push)
(assert (le x2 weka.core.Instances))
(check-sat)
(pop)
(push)
(assert (not (le x2 weka.core.Instances)))
(check-sat)
(pop)
(push)
(assert (= x3 java.lang.String))
(check-sat)
(pop)
(push)
(assert (not (= x3 java.lang.String)))
(check-sat)
(pop)
(pop)
(push)
(assert (= x3 java.lang.String))
(check-sat)
(push)
(assert (le x0 weka.core.Instance))
(check-sat)
(pop)
(push)
(assert (not (le x0 weka.core.Instance)))
(check-sat)
(pop)
(pop)
(push)
(assert (not (= x3 java.lang.String)))
(check-sat)
(pop)
(pop)
(push)
(assert (not (= x3 java.lang.String)))
(check-sat)
(pop)
(push)
(assert (le x3 java.util.Vector))
(check-sat)
(push)
(assert (= x0 java.lang.StringBuilder))
(check-sat)
(pop)
(push)
(assert (not (= x0 java.lang.StringBuilder)))
(check-sat)
(pop)
(push)
(assert (le x1 weka.core.FastVector))
(check-sat)
(push)
(assert (le x2 weka.core.Instances))
(check-sat)
(pop)
(push)
(assert (not (le x2 weka.core.Instances)))
(check-sat)
(pop)
(pop)
(push)
(assert (not (le x1 weka.core.FastVector)))
(check-sat)
(pop)
(push)
(assert (le x3 java.util.Vector))
(check-sat)
(pop)
(push)
(assert (not (le x3 java.util.Vector)))
(check-sat)
(pop)
(push)
(assert (le x3 java.util.Vector))
(check-sat)
(pop)
(push)
(assert (not (le x3 java.util.Vector)))
(check-sat)
(pop)
(push)
(assert (le x1 weka.core.FastVector))
(check-sat)
(pop)
(push)
(assert (not (le x1 weka.core.FastVector)))
(check-sat)
(pop)
(pop)
(push)
(assert (not (le x3 java.util.Vector)))
(check-sat)
(push)
(assert (not (le x2 weka.core.SparseInstance)))
(check-sat)
(push)
(assert (le x2 weka.core.Instance))
(check-sat)
(pop)
(pop)
(push)
(assert (le x2 weka.core.SparseInstance))
(check-sat)
(pop)
(push)
(assert (le x2 weka.core.Attribute))
(check-sat)
(push)
(assert (le x1 weka.core.FastVector))
(check-sat)
(push)
(assert (le x2 weka.core.Instance))
(check-sat)
(pop)
(push)
(assert (not (le x2 weka.core.Instance)))
(check-sat)
(pop)
(pop)
(push)
(assert (not (le x1 weka.core.FastVector)))
(check-sat)
(pop)
(pop)
(push)
(assert (le x2 weka.core.FastVector))
(check-sat)
(pop)
(pop)
(push)
(assert (le x3 weka.core.Instance))
(check-sat)
(push)
(assert (le x0 weka.core.Instance))
(check-sat)
(pop)
(push)
(assert (not (le x0 weka.core.Instance)))
(check-sat)
(pop)
(push)
(assert (not (le x3 weka.core.SparseInstance)))
(check-sat)
(push)
(assert (le x3 weka.core.Instance))
(check-sat)
(push)
(assert (le x3 weka.core.Instance))
(check-sat)
(pop)
(push)
(assert (not (le x3 weka.core.Instance)))
(check-sat)
(pop)
(push)
(assert (le x3 weka.core.Instance))
(check-sat)
(push)
(assert (le x2 weka.core.Instances))
(check-sat)
(pop)
(push)
(assert (not (le x2 weka.core.Instances)))
(check-sat)
(pop)
(pop)
(push)
(assert (not (le x3 weka.core.Instance)))
(check-sat)
(pop)
(push)
(assert (le x3 weka.core.Instance))
(check-sat)
(pop)
(push)
(assert (not (le x3 weka.core.Instance)))
(check-sat)
(pop)
(pop)
(pop)
(push)
(assert (le x3 weka.core.SparseInstance))
(check-sat)
(pop)
(pop)
(push)
(assert (not (le x3 weka.core.Instance)))
(check-sat)
(pop)
(push)
(assert (le x1 weka.core.FastVector))
(check-sat)
(push)
(assert (le x2 weka.core.Instances))
(check-sat)
(push)
(assert (le x3 weka.core.Instances))
(check-sat)
(pop)
(push)
(assert (not (le x3 weka.core.Instances)))
(check-sat)
(push)
(assert (le x2 weka.core.Instances))
(check-sat)
(pop)
(push)
(assert (not (le x2 weka.core.Instances)))
(check-sat)
(pop)
(pop)
(pop)
(push)
(assert (not (le x2 weka.core.Instances)))
(check-sat)
(pop)
(push)
(assert (le x0 weka.core.Instance))
(check-sat)
(push)
(assert (= x3 java.lang.String))
(check-sat)
(push)
(assert (= x3 java.lang.String))
(check-sat)
(pop)
(push)
(assert (not (= x3 java.lang.String)))
(check-sat)
(pop)
(pop)
(push)
(assert (not (= x3 java.lang.String)))
(check-sat)
(pop)
(push)
(assert (= x3 java.lang.String))
(check-sat)
(pop)
(push)
(assert (not (= x3 java.lang.String)))
(check-sat)
(pop)
(pop)
(push)
(assert (not (le x0 weka.core.Instance)))
(check-sat)
(pop)
(pop)
(push)
(assert (not (le x1 weka.core.FastVector)))
(check-sat)
(pop)
(push)
(assert (= x3 java.lang.Double))
(check-sat)
(push)
(assert (= x0 java.lang.StringBuffer))
(check-sat)
(push)
(assert (= x3 java.lang.Double))
(check-sat)
(pop)
(push)
(assert (not (= x3 java.lang.Double)))
(check-sat)
(pop)
(pop)
(push)
(assert (not (= x0 java.lang.StringBuffer)))
(check-sat)
(pop)
(push)
(assert (le x0 java.util.Vector))
(check-sat)
(pop)
(push)
(assert (not (le x0 java.util.Vector)))
(check-sat)
(push)
(assert (= x3 java.lang.Double))
(check-sat)
(pop)
(push)
(assert (not (= x3 java.lang.Double)))
(check-sat)
(pop)
(push)
(assert (le x1 weka.core.FastVector))
(check-sat)
(pop)
(push)
(assert (not (le x1 weka.core.FastVector)))
(check-sat)
(pop)
(push)
(assert (le x1 weka.core.FastVector))
(check-sat)
(pop)
(push)
(assert (not (le x1 weka.core.FastVector)))
(check-sat)
(pop)
(pop)
(push)
(assert (le x1 weka.core.FastVector))
(check-sat)
(pop)
(push)
(assert (not (le x1 weka.core.FastVector)))
(check-sat)
(pop)
(push)
(assert (le x1 weka.core.FastVector))
(check-sat)
(push)
(assert (le x1 weka.core.FastVector))
(check-sat)
(pop)
(push)
(assert (not (le x1 weka.core.FastVector)))
(check-sat)
(pop)
(push)
(assert (= x3 java.lang.Double))
(check-sat)
(pop)
(push)
(assert (not (= x3 java.lang.Double)))
(check-sat)
(pop)
(pop)
(push)
(assert (not (le x1 weka.core.FastVector)))
(check-sat)
(pop)
(push)
(assert (= x3 java.lang.Double))
(check-sat)
(pop)
(push)
(assert (not (= x3 java.lang.Double)))
(check-sat)
(pop)
(push)
(assert (= x3 java.lang.Double))
(check-sat)
(push)
(assert (= x3 java.lang.Double))
(check-sat)
(pop)
(push)
(assert (not (= x3 java.lang.Double)))
(check-sat)
(pop)
(pop)
(push)
(assert (not (= x3 java.lang.Double)))
(check-sat)
(pop)
(push)
(assert (le x0 java.util.HashSet))
(check-sat)
(pop)
(push)
(assert (not (le x0 java.util.HashSet)))
(check-sat)
(push)
(assert (le x0 java.util.HashSet))
(check-sat)
(pop)
(push)
(assert (not (le x0 java.util.HashSet)))
(check-sat)
(pop)
(push)
(assert (le x1 weka.core.FastVector))
(check-sat)
(pop)
(push)
(assert (not (le x1 weka.core.FastVector)))
(check-sat)
(pop)
(pop)
(pop)
(push)
(assert (not (= x3 java.lang.Double)))
(check-sat)
(push)
(assert (= x3 java.lang.Double))
(check-sat)
(pop)
(push)
(assert (not (= x3 java.lang.Double)))
(check-sat)
(push)
(assert (= x3 java.lang.Double))
(check-sat)
(pop)
(push)
(assert (not (= x3 java.lang.Double)))
(check-sat)
(pop)
(push)
(assert (= x3 java.lang.Double))
(check-sat)
(pop)
(push)
(assert (not (= x3 java.lang.Double)))
(check-sat)
(pop)
(pop)
(push)
(assert (le x1 weka.core.FastVector))
(check-sat)
(push)
(assert (= x0 java.lang.String))
(check-sat)
(pop)
(push)
(assert (not (= x0 java.lang.String)))
(check-sat)
(pop)
(pop)
(push)
(assert (not (le x1 weka.core.FastVector)))
(check-sat)
(pop)
(push)
(assert (= x2 java.lang.String))
(check-sat)
(pop)
(push)
(assert (not (= x2 java.lang.String)))
(check-sat)
(pop)
(push)
(assert (le x0 weka.core.Instances))
(check-sat)
(pop)
(push)
(assert (not (le x0 weka.core.Instances)))
(check-sat)
(pop)
(push)
(assert (= x3 java.lang.Double))
(check-sat)
(pop)
(push)
(assert (not (= x3 java.lang.Double)))
(check-sat)
(pop)
(pop)
(push)
(assert (= x2 java.lang.String))
(check-sat)
(push)
(assert (= x0 java.lang.String))
(check-sat)
(pop)
(push)
(assert (not (= x0 java.lang.String)))
(check-sat)
(push)
(assert (le x1 weka.core.FastVector))
(check-sat)
(push)
(assert (= x2 java.lang.String))
(check-sat)
(pop)
(push)
(assert (not (= x2 java.lang.String)))
(check-sat)
(pop)
(pop)
(push)
(assert (not (le x1 weka.core.FastVector)))
(check-sat)
(pop)
(pop)
(pop)
(push)
(assert (not (= x2 java.lang.String)))
(check-sat)
(pop)
(push)
(assert (le x3 weka.core.Instances))
(check-sat)
(push)
(assert (le x3 weka.core.Instances))
(check-sat)
(pop)
(push)
(assert (not (le x3 weka.core.Instances)))
(check-sat)
(pop)
(pop)
(push)
(assert (not (le x3 weka.core.Instances)))
(check-sat)
(push)
(assert (le x1 weka.core.FastVector))
(check-sat)
(pop)
(push)
(assert (not (le x1 weka.core.FastVector)))
(check-sat)
(pop)
(push)
(assert (le x1 weka.core.FastVector))
(check-sat)
(push)
(assert (le x2 weka.core.Instance))
(check-sat)
(pop)
(push)
(assert (not (le x2 weka.core.Instance)))
(check-sat)
(push)
(assert (le x1 weka.core.FastVector))
(check-sat)
(pop)
(push)
(assert (not (le x1 weka.core.FastVector)))
(check-sat)
(pop)
(pop)
(pop)
(push)
(assert (not (le x1 weka.core.FastVector)))
(check-sat)
(pop)
(push)
(assert (le x3 weka.core.Instances))
(check-sat)
(pop)
(push)
(assert (not (le x3 weka.core.Instances)))
(check-sat)
(pop)
(push)
(assert (le x1 weka.core.FastVector))
(check-sat)
(pop)
(push)
(assert (not (le x1 weka.core.FastVector)))
(check-sat)
(pop)
(pop)
(push)
(assert (le x3 weka.filters.supervised.attribute.NominalToBinary))
(check-sat)
(pop)
(push)
(assert (not (le x3 weka.filters.supervised.attribute.NominalToBinary)))
(check-sat)
(push)
(assert (le x0 weka.core.FastVector))
(check-sat)
(pop)
(push)
(assert (not (le x0 weka.core.FastVector)))
(check-sat)
(pop)
(pop)
(push)
(assert (le x3 weka.core.Instance))
(check-sat)
(pop)
(push)
(assert (not (le x3 weka.core.Instance)))
(check-sat)
(pop)
(pop)
(push)
(assert (not (le x1 weka.core.FastVector)))
(check-sat)
(pop)
